min: c;

c = 4.0261690556522 * u4_t1_h1 + 3.924423472283 * u4_t1_h2 + 3.55191077391517 * u4_t1_h3 + 2.75584536645084 * u4_t1_h4 + 2.75584536645084 * u4_t10_h4 + 3.09955431584173 * u4_t1_h5 + 3.09955431584173 * u4_t10_h5 + 3.97108132002539 * u4_t1_h6 + 3.97108132002539 * u4_t10_h6 + 3.6054535318211 * u4_t1_h7 + 3.6054535318211 * u4_t10_h7 + 5.51202522020883 * u4_t1_h8 + 5.51202522020883 * u4_t9_h8 + 5.51202522020883 * u4_t10_h8 + 4.74617152874016 * u4_t9_h9 + 4.74617152874016 * u4_t10_h9 + 5.53752438981844 * u4_t9_h10 + 5.53752438981844 * u4_t10_h10 + 4.32337043657653 * u4_t2_h11 + 4.32337043657653 * u4_t4_h11 + 4.32337043657653 * u4_t9_h11 + 4.32337043657653 * u4_t10_h11 + 5.79955857843981 * u4_t2_h12 + 5.79955857843981 * u4_t3_h12 + 5.79955857843981 * u4_t4_h12 + 5.79955857843981 * u4_t8_h12 + 5.79955857843981 * u4_t9_h12 + 5.79955857843981 * u4_t10_h12 + 4.90044864856185 * u4_t2_h13 + 4.90044864856185 * u4_t3_h13 + 4.90044864856185 * u4_t4_h13 + 4.90044864856185 * u4_t8_h13 + 4.90044864856185 * u4_t9_h13 + 5.17737120450916 * u4_t2_h14 + 5.17737120450916 * u4_t3_h14 + 5.17737120450916 * u4_t4_h14 + 5.17737120450916 * u4_t8_h14 + 5.17737120450916 * u4_t9_h14 + 6.44789224988034 * u4_t2_h15 + 6.44789224988034 * u4_t3_h15 + 6.44789224988034 * u4_t4_h15 + 6.44789224988034 * u4_t8_h15 + 6.44789224988034 * u4_t9_h15 + 5.88107251986944 * u4_t2_h16 + 5.88107251986944 * u4_t3_h16 + 5.88107251986944 * u4_t4_h16 + 5.88107251986944 * u4_t5_h16 + 5.88107251986944 * u4_t8_h16 + 5.88107251986944 * u4_t9_h16 + 6.48791070549549 * u4_t2_h17 + 6.48791070549549 * u4_t3_h17 + 6.48791070549549 * u4_t5_h17 + 6.48791070549549 * u4_t8_h17 + 6.48791070549549 * u4_t9_h17 + 6.500905464229 * u4_t2_h18 + 6.500905464229 * u4_t3_h18 + 6.500905464229 * u4_t5_h18 + 6.500905464229 * u4_t8_h18 + 6.500905464229 * u4_t9_h18 + 5.3473036847247 * u4_t2_h19 + 5.3473036847247 * u4_t3_h19 + 5.3473036847247 * u4_t6_h19 + 5.3473036847247 * u4_t8_h19 + 5.3473036847247 * u4_t9_h19 + 5.29789628961896 * u4_t2_h20 + 5.29789628961896 * u4_t6_h20 + 5.29789628961896 * u4_t9_h20 + 5.09988060316776 * u4_t6_h21 + 5.56887122759636 * u4_t6_h22 + 5.56887122759636 * u4_t7_h22 + 5.56096033388904 * u4_t6_h23 + 5.56096033388904 * u4_t7_h23;
0 <= u4_t1_h1 <= 1;
0 <= u4_t1_h2 <= 1;
0 <= u4_t1_h3 <= 1;
0 <= u4_t1_h4 <= 1;
0 <= u4_t1_h5 <= 1;
0 <= u4_t1_h6 <= 1;
0 <= u4_t1_h7 <= 1;
0 <= u4_t1_h8 <= 1;
u4_t1_h1 + u4_t1_h2 + u4_t1_h3 + u4_t1_h4 + u4_t1_h5 + u4_t1_h6 + u4_t1_h7 + u4_t1_h8 = 1;
0 <= u4_t2_h11 <= 1;
0 <= u4_t2_h12 <= 1;
0 <= u4_t2_h13 <= 1;
0 <= u4_t2_h14 <= 1;
0 <= u4_t2_h15 <= 1;
0 <= u4_t2_h16 <= 1;
0 <= u4_t2_h17 <= 1;
0 <= u4_t2_h18 <= 1;
0 <= u4_t2_h19 <= 1;
0 <= u4_t2_h20 <= 1;
u4_t2_h11 + u4_t2_h12 + u4_t2_h13 + u4_t2_h14 + u4_t2_h15 + u4_t2_h16 + u4_t2_h17 + u4_t2_h18 + u4_t2_h19 + u4_t2_h20 = 2;
0 <= u4_t3_h12 <= 1;
0 <= u4_t3_h13 <= 1;
0 <= u4_t3_h14 <= 1;
0 <= u4_t3_h15 <= 1;
0 <= u4_t3_h16 <= 1;
0 <= u4_t3_h17 <= 1;
0 <= u4_t3_h18 <= 1;
0 <= u4_t3_h19 <= 1;
u4_t3_h12 + u4_t3_h13 + u4_t3_h14 + u4_t3_h15 + u4_t3_h16 + u4_t3_h17 + u4_t3_h18 + u4_t3_h19 = 3;
0 <= u4_t4_h11 <= 1;
0 <= u4_t4_h12 <= 1;
0 <= u4_t4_h13 <= 1;
0 <= u4_t4_h14 <= 1;
0 <= u4_t4_h15 <= 1;
0 <= u4_t4_h16 <= 1;
u4_t4_h11 + u4_t4_h12 + u4_t4_h13 + u4_t4_h14 + u4_t4_h15 + u4_t4_h16 = 3;
0 <= u4_t5_h16 <= 1;
0 <= u4_t5_h17 <= 1;
0 <= u4_t5_h18 <= 1;
u4_t5_h16 + u4_t5_h17 + u4_t5_h18 = 1;
0 <= u4_t6_h19 <= 1;
0 <= u4_t6_h20 <= 1;
0 <= u4_t6_h21 <= 1;
0 <= u4_t6_h22 <= 1;
0 <= u4_t6_h23 <= 1;
u4_t6_h19 + u4_t6_h20 + u4_t6_h21 + u4_t6_h22 + u4_t6_h23 = 3;
0 <= u4_t7_h22 <= 1;
0 <= u4_t7_h23 <= 1;
u4_t7_h22 + u4_t7_h23 = 1;
0 <= u4_t8_h12 <= 1;
0 <= u4_t8_h13 <= 1;
0 <= u4_t8_h14 <= 1;
0 <= u4_t8_h15 <= 1;
0 <= u4_t8_h16 <= 1;
0 <= u4_t8_h17 <= 1;
0 <= u4_t8_h18 <= 1;
0 <= u4_t8_h19 <= 1;
u4_t8_h12 + u4_t8_h13 + u4_t8_h14 + u4_t8_h15 + u4_t8_h16 + u4_t8_h17 + u4_t8_h18 + u4_t8_h19 = 2;
0 <= u4_t9_h8 <= 1;
0 <= u4_t9_h9 <= 1;
0 <= u4_t9_h10 <= 1;
0 <= u4_t9_h11 <= 1;
0 <= u4_t9_h12 <= 1;
0 <= u4_t9_h13 <= 1;
0 <= u4_t9_h14 <= 1;
0 <= u4_t9_h15 <= 1;
0 <= u4_t9_h16 <= 1;
0 <= u4_t9_h17 <= 1;
0 <= u4_t9_h18 <= 1;
0 <= u4_t9_h19 <= 1;
0 <= u4_t9_h20 <= 1;
u4_t9_h8 + u4_t9_h9 + u4_t9_h10 + u4_t9_h11 + u4_t9_h12 + u4_t9_h13 + u4_t9_h14 + u4_t9_h15 + u4_t9_h16 + u4_t9_h17 + u4_t9_h18 + u4_t9_h19 + u4_t9_h20 = 2;
0 <= u4_t10_h4 <= 1;
0 <= u4_t10_h5 <= 1;
0 <= u4_t10_h6 <= 1;
0 <= u4_t10_h7 <= 1;
0 <= u4_t10_h8 <= 1;
0 <= u4_t10_h9 <= 1;
0 <= u4_t10_h10 <= 1;
0 <= u4_t10_h11 <= 1;
0 <= u4_t10_h12 <= 1;
u4_t10_h4 + u4_t10_h5 + u4_t10_h6 + u4_t10_h7 + u4_t10_h8 + u4_t10_h9 + u4_t10_h10 + u4_t10_h11 + u4_t10_h12 = 2;
